Base=4;
C=66;
start_setup=[|0,0,0,0,0,13,0,4,0,0,0,0,0,2,0,16
             |1,0,0,0,0,0,0,0,0,0,0,0,5,0,0,11
             |0,4,0,0,0,6,0,12,0,0,0,0,0,0,0,0
             |0,0,0,0,2,14,7,0,0,0,3,0,0,0,8,0
             |0,0,0,4,0,0,0,0,0,0,0,0,11,5,15,0
             |0,0,0,0,0,0,0,6,0,0,0,0,0,9,0,0
             |0,0,0,2,0,0,9,0,0,0,0,11,0,0,7,0
             |15,0,0,0,0,0,0,0,0,9,0,0,2,0,1,0
             |0,2,1,11,9,0,0,0,13,0,0,0,0,0,0,0
             |0,0,0,0,0,0,0,0,0,2,11,0,0,0,13,7
             |0,0,0,0,0,0,13,0,0,1,4,0,14,0,11,0
             |7,13,0,0,0,0,0,0,5,0,9,0,0,0,0,0
             |4,0,0,0,0,7,0,0,0,0,0,9,16,0,0,0
             |8,0,0,0,0,0,0,0,4,0,2,0,12,11,10,0
             |0,11,10,0,0,3,0,1,0,15,14,0,0,0,0,0
             |0,0,0,0,0,11,0,9,0,7,6,5,4,3,0,0
|];
target_sum=[24,36,111,38,18,24,12,12,28,21,20,20,54,5,11,42,36,33,63,3,30,34,21,19,7,40,42,21,14,29,17,161,59,16,8,38,43,16,15,12,12,37,44,37,11,12,18,12,42,38,20,56,68,53,42,14,85,57,53,72,1,25,56,17,10,31];
tile2cage=[
30,32,32,57,57,57,57,5,5,44,44,31,7,66,62,62
,30,32,32,32,57,57,39,44,44,44,2,31,7,66,66,28
,30,32,32,32,32,57,57,49,49,35,2,2,26,26,66,28
,30,32,32,32,32,29,57,49,49,27,27,27,26,26,41,41
,30,30,32,32,32,57,57,53,53,53,27,27,23,26,4,51
,3,3,3,32,32,57,45,45,24,53,8,27,23,10,4,51
,3,3,3,33,33,33,36,36,24,53,53,16,16,10,4,40
,3,3,3,33,33,33,59,36,24,24,47,47,16,10,64,64
,3,3,3,12,12,59,59,36,55,55,47,20,16,16,64,64
,37,37,37,56,15,15,59,59,55,55,22,19,19,19,19,6
,37,37,37,56,25,59,59,60,60,60,22,21,21,48,19,6
,13,13,18,18,42,42,42,60,60,60,22,52,52,52,52,6
,13,13,18,61,42,50,11,60,60,17,22,52,52,54,52,43
,13,13,38,58,50,50,11,60,60,17,34,52,54,54,43,43
,13,63,38,58,58,58,46,65,1,17,34,9,54,54,43,43
,63,63,63,58,58,58,46,65,1,17,9,9,9,14,14,43];
